examples/Knap/data/easy/input60_1.txt
ITEM 4 14
ITEM 17 27
ITEM 32 42
ITEM 19 29
ITEM 71 81
ITEM 26 36
ITEM 5 15
ITEM 28 38
ITEM 68 78
ITEM 52 62
ITEM 37 47
ITEM 10 20
ITEM 23 33
ITEM 91 101
ITEM 63 73
ITEM 6 16
ITEM 77 87
ITEM 94 104
ITEM 80 90
ITEM 40 50
ITEM 96 106
ITEM 55 65
ITEM 39 49
ITEM 83 93
ITEM 2 12
ITEM 94 104
ITEM 4 14
ITEM 31 41
ITEM 76 86
ITEM 56 66
ITEM 41 51
ITEM 80 90
ITEM 73 83
ITEM 73 83
ITEM 99 109
ITEM 45 55
ITEM 99 109
ITEM 4 14
ITEM 72 82
ITEM 68 78
ITEM 56 66
ITEM 10 20
ITEM 77 87
ITEM 78 88
ITEM 2 12
ITEM 40 50
ITEM 84 94
ITEM 79 89
ITEM 35 45
ITEM 64 74
ITEM 19 29
ITEM 32 42
ITEM 20 30
ITEM 58 68
ITEM 15 25
ITEM 22 32
ITEM 52 62
ITEM 19 29
ITEM 52 62
ITEM 29 39
CAPACITY 862
